22 28
7 12
5 22
10 11
42 41
36 28
20 43
23 19
27 35
38 22
24 22
8 29
17 35
36 39
24 3
33 39
29 37
5 9
22 47
28 14
5 10
26 4
31 29
10 40
40 38
11 46
30 1
42 44
46 44
9 24
4 40
25 1
3 46
19 47
8 15
32 7
3 7
26 15
16 19
47 39
43 49
8 12
1 10
40 14
26 18
23 24
18 25
9 1
43 24
14 17
20 23
44 43
12 38
27 39
44 27
22 5
26 18
25 33
14 18
25 10
30 14
29 3
1 34
0 0
41 43
16 49
49 38
10 48
34 9
27 36
39 0
44 27
46 12
32 13
43 39
7 35
10 5
28 25
35 42
10 11
45 27
47 46
37 48
22 4
0 35
32 13
48 7
44 38
2 32
42 20
13 26
1 31
47 5
15 19
29 22
48 35
13 42
18 12
8 35
40 10
